************************************************************************
file with basedata            : md366_.bas
initial value random generator: 620182390
************************************************************************
projects                      :  1
jobs (incl. supersource/sink ):  22
horizon                       :  161
RESOURCES
  - renewable                 :  2   R
  - nonrenewable              :  2   N
  - doubly constrained        :  0   D
************************************************************************
PROJECT INFORMATION:
pronr.  #jobs rel.date duedate tardcost  MPM-Time
    1     20      0       26       12       26
************************************************************************
PRECEDENCE RELATIONS:
jobnr.    #modes  #successors   successors
   1        1          3           2   3   4
   2        3          3           5   6   7
   3        3          2          19  20
   4        3          3           8   9  13
   5        3          3           9  10  11
   6        3          3          14  15  16
   7        3          1          13
   8        3          1          19
   9        3          3          14  16  21
  10        3          2          12  15
  11        3          1          17
  12        3          2          14  16
  13        3          3          15  17  20
  14        3          2          18  20
  15        3          1          21
  16        3          1          18
  17        3          2          18  21
  18        3          1          19
  19        3          1          22
  20        3          1          22
  21        3          1          22
  22        1          0        
************************************************************************
REQUESTS/DURATIONS:
jobnr. mode duration  R 1  R 2  N 1  N 2
------------------------------------------------------------------------
  1      1     0       0    0    0    0
  2      1     2       9    9    8    6
         2     5       6    9    7    5
         3     6       1    8    2    4
  3      1     1       6    9    3    8
         2     2       6    8    3    8
         3     4       2    5    3    8
  4      1     1       8    8    3    7
         2     6       6    5    3    5
         3     9       1    4    3    4
  5      1     2      10   10    7    7
         2     5      10    7    6    7
         3     7       9    3    5    7
  6      1     1       2    7    2    4
         2     5       2    5    2    3
         3     7       2    3    1    3
  7      1     4       7    8    8    5
         2     8       7    6    6    5
         3    10       6    5    5    2
  8      1     6       9    5    9    4
         2     9       6    4    6    4
         3    10       1    1    5    4
  9      1     1       3    7    5    5
         2     9       3    6    5    4
         3    10       3    4    4    4
 10      1     5       7    8    7    9
         2     8       7    6    5    8
         3    10       4    2    2    7
 11      1     3       8    3    3   10
         2     7       5    2    3    7
         3     9       4    2    2    4
 12      1     5       3    7    3    7
         2     6       2    7    2    5
         3    10       2    5    2    4
 13      1     3      10    8    5    5
         2     6       5    6    4    3
         3     8       3    4    4    3
 14      1     2       3   10    6    7
         2     4       3   10    6    6
         3     6       2    9    5    5
 15      1     5       7   10    8    7
         2     7       5    8    7    5
         3    10       5    8    6    5
 16      1     1       7    6    6    9
         2     2       5    5    5    8
         3    10       4    5    3    5
 17      1     6       5    8    9    9
         2     7       5    5    8    8
         3     8       4    1    8    8
 18      1     2       3    4    4    9
         2     2       3    6    5    8
         3     5       2    3    4    4
 19      1     8       4    4    6    8
         2     8       3    7    4    7
         3     8       5    7    5    6
 20      1     3       7    7    6    5
         2     6       6    5    6    5
         3     8       1    2    4    4
 21      1     2       8    5    5    6
         2     3       8    2    3    6
         3     6       8    1    3    5
 22      1     0       0    0    0    0
************************************************************************
RESOURCEAVAILABILITIES:
  R 1  R 2  N 1  N 2
   22   20   95  117
************************************************************************
